124060
0
75
2
1
23
22
24
21
25
46
45
44
48
47
69
68
70
67
50
49
52
53
54
42
43
28
29
30
31
19
20
5
6
9
12
13
14
74
8
7
10
11
15
16
17
18
37
36
35
34
40
41
60
59
58
57
63
64
62
61
55
56
51
66
65
71
72
73
39
38
32
33
27
26
4
3
